Name:		mgval_0.45_1C
Optimal value:	-1
#Vehicles:	8
Capacity:	45
Depot Node:	1
#Nodes:		24
#Edges:		17
#Arcs:		36
#Required N:	16
#Required E:	9
#Required A:	19

ReN.	DEMAND	S. COST
N2	2	2
N4	1	1
N5	18	18
N6	41	41
N7	23	23
N10	3	3
N11	6	6
N12	5	5
N13	11	11
N14	13	13
N17	4	4
N18	2	2
N19	27	27
N20	4	4
N21	7	7
N23	4	4

ReE.	FROM N.	TO N.	T. COST	DEMAND	S. COST
E9	1	5	3	4	4
E10	2	5	3	12	12
E11	3	4	5	14	14
E12	1	20	5	13	13
E13	21	23	5	12	12
E14	12	16	3	5	5
E15	3	10	3	7	7
E16	3	9	2	4	4
E17	22	23	2	9	9

EDGE	FROM N.	TO N.	T. COST
NrE1	7	13	4
NrE2	7	8	4
NrE3	6	11	7
NrE4	5	11	4
NrE5	14	18	3
NrE6	23	24	2
NrE7	13	14	5
NrE8	6	12	4

ReA.	FROM N.	TO N.	T. COST	DEMAND	S. COST
A18	8	14	4	4	4
A19	15	20	3	4	4
A20	11	1	7	6	6
A21	1	9	3	9	9
A22	6	7	3	6	6
A23	20	21	3	12	12
A24	17	12	4	4	4
A25	21	24	4	6	6
A26	1	19	4	13	13
A27	19	9	5	7	7
A28	17	16	1	2	2
A29	16	15	2	4	4
A30	24	21	4	7	7
A31	16	17	1	2	2
A32	2	4	1	2	2
A33	9	19	5	7	7
A34	5	4	4	2	2
A35	12	17	4	3	3
A36	15	21	6	7	7

ARC	FROM N.	TO N.	T. COST
NrA1	12	11	2
NrA2	19	22	5
NrA3	17	18	2
NrA4	20	15	3
NrA5	19	20	5
NrA6	5	6	10
NrA7	1	11	7
NrA8	7	6	3
NrA9	21	15	6
NrA10	13	17	2
NrA11	2	10	2
NrA12	17	13	2
NrA13	10	2	2
NrA14	4	5	4
NrA15	18	17	2
NrA16	6	5	10
NrA17	14	8	4
